11
0 93 76 47 6 85 25 18 88 3 42 
28 0 51 4 37 52 5 21 100 2 62 
56 21 0 100 15 34 88 17 21 3 19 
2 98 26 0 73 98 45 82 86 70 42 
31 74 72 96 0 5 39 7 86 41 57 
23 43 65 92 51 0 17 51 52 68 77 
28 60 36 40 23 75 0 35 13 96 52 
100 26 25 68 40 44 92 0 38 42 75 
49 6 83 28 14 60 20 61 0 81 34 
84 67 48 65 63 18 40 9 7 0 58 
74 4 31 8 41 49 17 87 42 55 0 
